p edge 64 512
e 1 59
e 1 44
e 1 9
e 1 15
e 1 42
e 1 10
e 1 35
e 1 40
e 1 22
e 1 13
e 1 4
e 1 51
e 1 26
e 1 14
e 1 5
e 1 43
e 1 62
e 1 57
e 1 20
e 1 64
e 2 34
e 2 25
e 2 63
e 2 62
e 2 28
e 2 19
e 2 50
e 2 56
e 2 39
e 2 12
e 2 54
e 2 10
e 2 38
e 3 63
e 3 7
e 3 31
e 3 56
e 3 41
e 3 54
e 3 49
e 3 53
e 3 51
e 3 5
e 3 58
e 3 21
e 3 15
e 3 40
e 3 64
e 3 57
e 3 8
e 3 62
e 4 16
e 4 7
e 4 49
e 4 40
e 4 6
e 4 45
e 4 46
e 4 10
e 4 15
e 4 34
e 4 62
e 4 31
e 4 53
e 4 27
e 4 54
e 4 17
e 5 34
e 5 40
e 5 51
e 5 23
e 5 16
e 5 22
e 5 30
e 5 49
e 5 11
e 5 62
e 5 21
e 5 14
e 5 47
e 5 35
e 5 26
e 5 20
e 5 13
e 5 15
e 5 25
e 5 52
e 5 64
e 5 10
e 5 53
e 5 57
e 6 22
e 6 36
e 6 44
e 6 63
e 6 18
e 6 8
e 6 25
e 6 7
e 6 64
e 6 26
e 6 38
e 6 20
e 7 38
e 7 56
e 7 47
e 7 20
e 7 61
e 7 23
e 7 30
e 7 11
e 7 21
e 7 34
e 7 46
e 7 45
e 7 14
e 7 52
e 7 35
e 7 10
e 7 42
e 7 15
e 8 41
e 8 59
e 8 42
e 8 9
e 8 16
e 8 45
e 8 37
e 8 36
e 8 27
e 8 13
e 8 10
e 8 46
e 8 48
e 8 47
e 8 39
e 8 53
e 9 47
e 9 56
e 9 43
e 9 12
e 9 34
e 9 59
e 9 32
e 9 10
e 9 49
e 9 45
e 9 27
e 9 63
e 9 29
e 10 25
e 10 23
e 10 31
e 10 63
e 10 59
e 10 64
e 10 61
e 10 46
e 10 21
e 10 13
e 11 62
e 11 17
e 11 41
e 11 64
e 11 30
e 12 40
e 12 36
e 12 38
e 12 26
e 12 33
e 12 56
e 12 54
e 12 61
e 12 22
e 12 29
e 12 25
e 12 50
e 12 45
e 12 64
e 12 23
e 12 19
e 13 21
e 13 31
e 13 43
e 13 57
e 13 24
e 13 47
e 13 44
e 13 16
e 13 19
e 13 42
e 13 56
e 13 32
e 13 61
e 13 62
e 13 53
e 13 30
e 14 51
e 14 64
e 14 35
e 14 29
e 14 48
e 14 20
e 14 27
e 14 34
e 14 58
e 14 40
e 14 52
e 14 31
e 15 41
e 15 63
e 15 64
e 15 24
e 15 38
e 15 27
e 15 36
e 15 60
e 15 55
e 15 61
e 15 18
e 16 18
e 16 35
e 16 44
e 16 27
e 16 25
e 16 52
e 16 51
e 16 24
e 16 56
e 16 57
e 16 54
e 16 21
e 16 20
e 16 45
e 16 43
e 16 58
e 17 24
e 17 25
e 17 38
e 17 28
e 17 59
e 17 47
e 17 54
e 17 30
e 17 36
e 17 48
e 17 46
e 17 40
e 17 22
e 18 19
e 18 42
e 18 39
e 18 55
e 18 44
e 18 31
e 18 36
e 18 51
e 18 43
e 18 33
e 18 53
e 18 22
e 18 58
e 18 25
e 18 45
e 18 46
e 18 62
e 18 59
e 18 48
e 19 57
e 19 33
e 19 55
e 19 31
e 19 59
e 19 43
e 20 26
e 20 48
e 20 24
e 20 43
e 20 39
e 20 64
e 20 23
e 20 60
e 20 45
e 20 42
e 20 41
e 20 61
e 20 57
e 20 52
e 20 56
e 20 55
e 21 27
e 21 38
e 21 46
e 21 48
e 21 64
e 21 40
e 21 62
e 21 24
e 21 55
e 21 59
e 21 50
e 21 36
e 21 37
e 21 51
e 22 46
e 22 25
e 22 53
e 22 34
e 22 56
e 22 49
e 22 27
e 22 26
e 22 42
e 22 32
e 22 30
e 22 48
e 22 55
e 23 43
e 23 52
e 23 40
e 23 46
e 23 34
e 23 41
e 23 45
e 23 35
e 24 59
e 24 53
e 24 48
e 24 62
e 24 49
e 24 41
e 24 51
e 24 29
e 24 52
e 24 34
e 24 56
e 25 28
e 25 29
e 25 59
e 25 50
e 25 34
e 25 60
e 25 56
e 26 37
e 26 59
e 26 28
e 27 39
e 27 32
e 27 45
e 27 59
e 27 56
e 27 31
e 27 46
e 27 57
e 28 57
e 28 39
e 28 37
e 28 59
e 28 51
e 28 36
e 28 38
e 28 61
e 28 54
e 28 58
e 28 56
e 28 55
e 28 47
e 28 45
e 29 55
e 29 51
e 29 40
e 29 41
e 29 44
e 29 49
e 29 59
e 30 53
e 30 39
e 30 62
e 30 37
e 30 31
e 30 47
e 30 42
e 30 36
e 30 41
e 30 54
e 30 40
e 31 39
e 31 47
e 31 62
e 31 59
e 31 61
e 31 55
e 32 44
e 32 62
e 32 64
e 32 39
e 32 41
e 32 36
e 32 43
e 32 49
e 32 47
e 32 48
e 33 39
e 33 49
e 33 51
e 33 64
e 33 62
e 33 59
e 34 50
e 34 60
e 34 61
e 34 53
e 34 39
e 35 58
e 35 54
e 35 44
e 35 63
e 35 51
e 35 61
e 35 42
e 35 45
e 35 46
e 35 57
e 36 59
e 36 54
e 36 51
e 36 43
e 36 60
e 36 41
e 37 40
e 37 63
e 37 47
e 37 61
e 38 46
e 38 50
e 38 53
e 38 59
e 39 44
e 39 42
e 39 64
e 39 59
e 39 52
e 39 45
e 39 43
e 39 60
e 40 54
e 40 56
e 40 64
e 40 46
e 41 45
e 41 59
e 42 63
e 42 62
e 42 55
e 43 46
e 43 48
e 43 63
e 43 47
e 43 45
e 43 56
e 43 64
e 44 60
e 44 52
e 45 64
e 45 59
e 45 62
e 46 61
e 46 63
e 46 64
e 46 55
e 46 52
e 46 60
e 46 49
e 46 51
e 47 55
e 47 62
e 47 48
e 47 61
e 47 49
e 47 56
e 48 57
e 48 64
e 48 55
e 48 51
e 48 50
e 48 62
e 48 49
e 48 54
e 49 59
e 49 57
e 49 58
e 49 62
e 50 64
e 50 58
e 50 52
e 50 59
e 51 57
e 52 62
e 52 63
e 52 58
e 52 64
e 53 59
e 53 62
e 54 56
e 54 60
e 55 60
e 56 64
e 56 63
e 57 62
e 58 63
e 58 61
e 60 61
